p td 60 90
0 17
1 19
1 58
1 54
2 29
2 48
2 12
2 5
2 4
3 39
3 19
3 51
4 13
4 19
4 52
4 6
4 54
5 52
6 33
6 7
7 31
7 36
8 23
8 18
8 11
9 42
10 19
10 53
10 54
11 12
12 26
12 21
12 50
13 48
13 52
13 18
13 42
13 46
14 33
14 29
14 53
14 58
15 23
15 48
15 38
16 50
17 30
17 24
18 48
18 53
20 21
21 42
22 40
22 45
23 49
23 24
24 27
24 26
25 58
26 28
27 28
27 35
27 58
28 46
28 53
28 52
29 42
30 51
31 33
31 52
32 38
33 47
33 43
34 46
34 58
35 42
37 43
37 49
38 44
40 44
40 54
41 59
43 45
45 59
45 49
47 53
48 51
48 50
51 59
53 57
